%
% Generated Sudoku 16x16
% Density approximation: 0.50
%
x = array2d(1..n, 1..n, [
  16,   8,   5,   _,  11,  14,  15,   3,   _,   _,   4,  13,   _,   _,   _,  12,
   _,   _,  14,   _,   8,   9,  16,   1,  11,   2,   5,   _,   _,   _,   _,   _,
  15,   7,   _,  11,   _,   _,  13,   2,   8,  12,   1,  10,   _,   _,   _,   9,
   9,   2,   _,   1,  10,   7,  12,   4,   _,   _,   _,  16,   _,   _,   _,   _,
   8,   _,   9,   6,   _,  10,   _,   _,   _,   7,   _,   _,  14,   2,   _,   _,
   _,   _,   _,   5,   1,   6,   2,   _,   4,   _,   _,  15,   7,  10,   _,   _,
   _,   _,   2,  13,   _,  16,  14,   _,   6,  10,   3,   5,   _,   _,   9,   4,
   4,  11,  10,  15,   3,   _,   _,   _,   _,  16,   _,   8,   5,   6,   1,  13,
   _,   _,   _,   _,   _,  13,   9,   _,  15,   1,   _,   _,  16,   _,   2,   _,
   _,   _,   4,   2,   7,   _,   _,   _,   _,   5,  16,   _,   9,   _,   _,   _,
   1,   _,  12,   _,   _,   _,   _,   _,   _,   9,   _,   4,   _,   5,  11,   _,
   _,   _,   7,   _,   5,   4,   _,   _,   2,   8,   _,   _,  12,  15,   6,   _,
   2,   _,   8,   7,   _,   _,   1,   _,   _,   _,  12,   _,   _,   _,   _,  11,
  11,   _,   _,   9,   4,   2,   _,   7,   _,   _,   6,   _,  13,  14,  12,   5,
  14,  16,   _,   _,   _,   _,  10,   _,   _,   4,   _,   _,   6,   _,   _,  15,
   _,   _,   6,   3,  14,  15,   _,   _,   _,   _,   8,   _,   1,   7,   _,   2
]);

n = 16;
